commons/LK_FILES/TIC17-10-10-4.tsp
NAME: TIC17-10-10-4
TYPE: TSP
COMMENT: TSP
DIMENSION: 8
EDGE_WEIGHT_TYPE: EXPLICIT
EDGE_WEIGHT_FORMAT: FULL_MATRIX
EDGE_WEIGHT_SECTION
0 360 95 270 63 228 290 361 
360 0 217 348 276 84 52 487 
95 217 0 108 490 288 244 301 
270 348 108 0 320 306 136 151 
63 276 490 320 0 110 479 188 
228 84 288 306 110 0 169 470 
290 52 244 136 479 169 0 222 
361 487 301 151 188 470 222 0 
EOF
