commons/LK_FILES/TIC17-10-10-4.tour
NAME : TIC17-10-10-4.885.tour
COMMENT : Length = 885
COMMENT : Found by LKH [Keld Helsgaun] Thu Dec 15 16:56:42 2016
TYPE : TOUR
DIMENSION : 8
TOUR_SECTION
1
3
4
8
7
2
6
5
-1
EOF
